(set-info :smt-lib-version 2.6)
(set-logic UFLIA)
(set-info :source |
Generated by: Geoff Sutcliffe
Generated on: 2026-03-11
Generator: TPTPWorld
Application: Benchmarking automated theorem provers
Time limit: 120.0

These benchmarks are translations from the TPTP Library (Thousands of
Problems for Theorem Provers), see http://www.cs.miami.edu/~tptp/

The TPTP is maintained by Geoff Sutcliffe, and he contributed this
selection of benchmarks to SMT-LIB.  They were exported from the
v9.2.1 realease of TPTP.
|)
(set-info :category "industrial")
(set-info :status "unknown")
; SZS status Success
(declare-sort $$unsorted 0)
(declare-sort tptp.list 0)
(declare-fun tptp.nil () tptp.list)
(declare-fun tptp.mycons (Int tptp.list) tptp.list)
(declare-fun tptp.fib_sorted (tptp.list) Bool)
(assert (tptp.fib_sorted tptp.nil))
(assert (forall ((X Int)) (tptp.fib_sorted (tptp.mycons X tptp.nil))))
(assert (forall ((X Int) (Y Int)) (=> (< X Y) (tptp.fib_sorted (tptp.mycons X (tptp.mycons Y tptp.nil))))))
(assert (forall ((X Int) (Y Int) (Z Int) (R tptp.list)) (let ((_let_1 (tptp.mycons Y (tptp.mycons Z R)))) (=> (and (< X Y) (>= Z (+ X Y)) (tptp.fib_sorted _let_1)) (tptp.fib_sorted (tptp.mycons X _let_1))))))
(assert (not (tptp.fib_sorted (tptp.mycons 1 (tptp.mycons 2 (tptp.mycons 4 (tptp.mycons 7 (tptp.mycons 100 tptp.nil))))))))
(check-sat)
(exit)
